(set-info :source |printed by MathSAT|)
(declare-fun counter@2 () (_ BitVec 32))
(declare-fun |main::local_2c@2| () (_ BitVec 32))
(declare-fun |assume::cond@2| () (_ BitVec 32))
(declare-fun |main::tmp_var_2_uint@2| () (_ BitVec 32))
(declare-fun counter@3 () (_ BitVec 32))
(declare-fun |main::__CPAchecker_TMP_0@3| () (_ BitVec 32))
(declare-fun |main::q@4| () (_ BitVec 32))
(declare-fun |main::tmp_var_1_uint@4| () (_ BitVec 32))
(declare-fun counter@4 () (_ BitVec 32))
(declare-fun |main::p@4| () (_ BitVec 32))
(declare-fun |main::A@4| () (_ BitVec 32))
(declare-fun counter@5 () (_ BitVec 32))
(declare-fun |main::__CPAchecker_TMP_0@5| () (_ BitVec 32))
(declare-fun |main::q@5| () (_ BitVec 32))
(declare-fun |main::tmp_var_1_uint@5| () (_ BitVec 32))
(assert (let ((.def_774 (= |main::local_2c@2| |main::q@5|)))(let ((.def_775 (not .def_774)))(let ((.def_767 (bvmul |main::A@4| |main::q@5|)))(let ((.def_769 (bvadd |main::p@4| .def_767)))(let ((.def_770 (= |main::tmp_var_2_uint@2| .def_769)))(let ((.def_277 (= |main::tmp_var_2_uint@2| |main::p@4|)))(let ((.def_20 (= |assume::cond@2| (_ bv0 32))))(let ((.def_23 (not .def_20)))(let ((.def_13 (= |main::local_2c@2| (_ bv0 32))))(let ((.def_14 (not .def_13)))(let ((.def_16 (ite .def_14 (_ bv1 32) (_ bv0 32))))(let ((.def_18 (= .def_16 |assume::cond@2|)))(let ((.def_11 (= counter@2 (_ bv0 32))))(let ((.def_19 (and .def_11 .def_18)))(let ((.def_24 (and .def_19 .def_23)))(let ((.def_750 (and .def_24 .def_277)))(let ((.def_695 (= |main::local_2c@2| |main::q@4|)))(let ((.def_751 (and .def_695 .def_750)))(let ((.def_343 (= |main::tmp_var_1_uint@4| (_ bv1 32))))(let ((.def_752 (and .def_343 .def_751)))(let ((.def_276 (= |main::A@4| (_ bv0 32))))(let ((.def_753 (and .def_276 .def_752)))(let ((.def_40 (bvadd (_ bv1 32) counter@2)))(let ((.def_42 (= .def_40 counter@3)))(let ((.def_754 (and .def_42 .def_753)))(let ((.def_44 (bvslt counter@3 (_ bv2 32))))(let ((.def_45 (ite .def_44 (_ bv1 32) (_ bv0 32))))(let ((.def_47 (= .def_45 |main::__CPAchecker_TMP_0@3|)))(let ((.def_755 (and .def_47 .def_754)))(let ((.def_49 (= |main::__CPAchecker_TMP_0@3| (_ bv0 32))))(let ((.def_52 (not .def_49)))(let ((.def_756 (and .def_52 .def_755)))(let ((.def_129 (bvmul |main::local_2c@2| |main::tmp_var_1_uint@4|)))(let ((.def_130 (= |main::q@4| .def_129)))(let ((.def_757 (and .def_130 .def_756)))(let ((.def_382 (bvult |main::tmp_var_2_uint@2| |main::q@4|)))(let ((.def_385 (not .def_382)))(let ((.def_758 (and .def_385 .def_757)))(let ((.def_387 (bvshl |main::q@4| (_ bv1 32))))(let ((.def_389 (= .def_387 |main::q@5|)))(let ((.def_759 (and .def_389 .def_758)))(let ((.def_391 (bvshl |main::tmp_var_1_uint@4| (_ bv1 32))))(let ((.def_393 (= .def_391 |main::tmp_var_1_uint@5|)))(let ((.def_760 (and .def_393 .def_759)))(let ((.def_153 (bvadd (_ bv1 32) counter@3)))(let ((.def_155 (= .def_153 counter@4)))(let ((.def_761 (and .def_155 .def_760)))(let ((.def_363 (bvslt counter@4 (_ bv2 32))))(let ((.def_364 (ite .def_363 (_ bv1 32) (_ bv0 32))))(let ((.def_366 (= .def_364 |main::__CPAchecker_TMP_0@5|)))(let ((.def_762 (and .def_366 .def_761)))(let ((.def_368 (= |main::__CPAchecker_TMP_0@5| (_ bv0 32))))(let ((.def_763 (and .def_368 .def_762)))(let ((.def_306 (bvadd (_ bv1 32) counter@4)))(let ((.def_308 (= .def_306 counter@5)))(let ((.def_764 (and .def_308 .def_763)))(let ((.def_309 (bvslt (_ bv1 32) counter@5)))(let ((.def_765 (and .def_309 .def_764)))(let ((.def_773 (and .def_765 .def_770)))(let ((.def_777 (and .def_773 .def_775))).def_777)))))))))))))))))))))))))))))))))))))))))))))))))))))))))))))